
******************************************************************************
This program contains Ipopt, a library for large-scale nonlinear optimization.
 Ipopt is released as open source code under the Eclipse Public License (EPL).
         For more information visit http://projects.coin-or.org/Ipopt

This version of Ipopt was compiled from source code available at
    https://github.com/IDAES/Ipopt as part of the Institute for the Design of
    Advanced Energy Systems Process Systems Engineering Framework (IDAES PSE
    Framework) Copyright (c) 2018-2019. See https://github.com/IDAES/idaes-pse.

This version of Ipopt was compiled using HSL, a collection of Fortran codes
    for large-scale scientific computation.  All technical papers, sales and
    publicity material resulting from use of the HSL codes within IPOPT must
    contain the following acknowledgement:
        HSL, a collection of Fortran codes for large-scale scientific
        computation. See http://www.hsl.rl.ac.uk.
******************************************************************************

This is Ipopt version 3.13.2, running with linear solver ma27.

Number of nonzeros in equality constraint Jacobian...:     1172
Number of nonzeros in inequality constraint Jacobian.:        0
Number of nonzeros in Lagrangian Hessian.............:     1333

Total number of variables............................:      465
                     variables with only lower bounds:      124
                variables with lower and upper bounds:      279
                     variables with only upper bounds:        0
Total number of equality constraints.................:      462
Total number of inequality constraints...............:        0
        inequality constraints with only lower bounds:        0
   inequality constraints with lower and upper bounds:        0
        inequality constraints with only upper bounds:        0

iter    objective    inf_pr   inf_du lg(mu)  ||d||  lg(rg) alpha_du alpha_pr  ls
   0  0.0000000e+00 2.62e+00 3.89e-15  -1.0 0.00e+00    -  0.00e+00 0.00e+00   0
   1  1.4784712e+00 2.15e+00 3.42e+05  -1.0 3.70e+06    -  2.34e-02 2.84e-02h  4
   2  8.5658681e+00 1.90e+00 1.12e+06  -1.0 7.99e+06    -  2.11e-02 2.37e-02h  3
   3  1.9748321e+01 1.89e+00 2.20e+06  -1.0 5.85e+07    -  5.59e-03 4.99e-03h  3
   4  3.6898413e+01 1.89e+00 2.80e+06  -1.0 1.00e+08    -  3.06e-03 2.83e-03h  3
   5  6.2575612e+01 1.88e+00 3.01e+06  -1.0 8.34e+07    -  3.14e-03 3.10e-03h  3
   6  9.1391462e+01 1.87e+00 3.01e+06  -1.0 4.84e+07    -  4.27e-03 3.56e-03h  3
   7  1.4163003e+02 1.85e+00 2.92e+06  -1.0 3.36e+07    -  8.33e-03 6.26e-03h  3
   8  1.9147832e+02 1.84e+00 2.72e+06  -1.0 3.03e+07    -  2.37e-02 6.55e-03h  3
   9  1.9175068e+02 1.84e+00 2.72e+06  -1.0 5.94e+07    -  1.02e-02 8.47e-05h  8
iter    objective    inf_pr   inf_du lg(mu)  ||d||  lg(rg) alpha_du alpha_pr  ls
  10  2.0230493e+02 1.84e+00 2.72e+06  -1.0 5.70e+07    -  2.99e-02 9.99e-04h  7
  11  2.1848458e+03 3.39e+00 4.02e+07  -1.0 6.55e+07    -  2.71e-02 7.11e-02w  1
  12  2.0081302e+03 3.37e+00 5.20e+07  -1.0 7.40e+07    -  3.05e-02 5.50e-03w  1
  13  2.0098870e+03 3.37e+00 5.20e+07  -1.0 3.62e+08    -  1.77e-02 9.68e-06w  1
  14  3.2562541e+02 1.81e+00 3.24e+06  -1.0 3.45e+08    -  2.71e-02 8.88e-03h  3
  15  4.9939864e+02 1.79e+00 3.91e+06  -1.0 8.76e+07    -  3.63e-02 7.67e-03h  4
  16  7.5429787e+02 1.77e+00 6.25e+06  -1.0 1.18e+08    -  4.51e-02 6.91e-03h  4
  17  1.1792927e+03 1.75e+00 1.10e+07  -1.0 1.68e+08    -  3.81e-02 6.71e-03h  4
  18  2.0431616e+03 1.72e+00 2.27e+07  -1.0 2.52e+08    -  4.76e-02 7.24e-03h  3
  19  2.8076165e+03 1.72e+00 2.36e+07  -1.0 4.63e+08    -  1.88e-02 2.89e-03h  2
iter    objective    inf_pr   inf_du lg(mu)  ||d||  lg(rg) alpha_du alpha_pr  ls
  20r 2.8076165e+03 1.72e+00 9.99e+02   0.2 0.00e+00  -2.0 0.00e+00 4.99e-07R 14
  21r 2.8076167e+03 1.62e+00 9.95e+02   0.2 2.55e+03    -  6.17e-03 4.05e-03f  1
  22r 2.8076169e+03 1.44e+00 9.87e+02   0.2 7.08e+02    -  5.11e-02 7.61e-03f  1
  23  5.6264141e+03 1.43e+00 2.42e+04  -1.0 7.92e+08    -  1.02e-02 4.93e-03h  1
  24  5.7008755e+03 1.43e+00 2.42e+04  -1.0 1.44e+09    -  2.10e-02 6.25e-05h  1
  25  8.1257824e+03 1.43e+00 4.61e+04  -1.0 1.69e+09    -  2.98e-02 1.59e-03h  1
  26r 8.1257824e+03 1.43e+00 1.00e+03   0.2 0.00e+00    -  0.00e+00 3.00e-07R  6
  27r 8.1257821e+03 1.43e+00 9.97e+02   0.2 1.89e+03    -  3.21e-02 1.89e-03f  1
  28r 8.1257801e+03 1.32e+00 9.78e+02   0.2 1.46e+03    -  1.92e-02 1.94e-02f  1
  29r 8.1257782e+03 1.29e+00 9.57e+02   0.2 1.49e+03    -  3.03e-02 2.10e-02f  1
iter    objective    inf_pr   inf_du lg(mu)  ||d||  lg(rg) alpha_du alpha_pr  ls
  30r 8.1257782e+03 1.30e+00 9.36e+02   0.2 2.37e+01   0.0 1.43e-02 2.23e-02f  1
  31r 8.1257763e+03 1.28e+00 9.16e+02   0.2 1.59e+03    -  2.03e-02 2.57e-02f  1
  32  1.5044878e+03 2.99e+00 8.24e+07  -1.0 2.22e+09    -  8.16e-06 6.64e-03f  1
  33  2.0219775e+03 2.98e+00 8.19e+07  -1.0 2.30e+08    -  5.04e-03 5.50e-03h  4
  34  2.1183879e+03 2.97e+00 8.18e+07  -1.0 3.61e+08    -  5.70e-05 6.22e-04h  7
  35  2.2353166e+03 2.97e+00 8.18e+07  -1.0 4.15e+08    -  1.40e-05 8.40e-04h  5
  36  2.4072366e+03 2.97e+00 8.17e+07  -1.0 4.57e+08    -  9.77e-04 9.59e-04h  5
  37  2.6919933e+03 2.96e+00 8.16e+07  -1.0 5.36e+08    -  1.43e-02 1.16e-03h  5
  38  3.3686876e+03 2.95e+00 8.15e+07  -1.0 7.23e+08    -  2.19e-02 1.70e-03h  5
  39  6.5273928e+03 2.94e+00 8.12e+07  -1.0 1.42e+09    -  1.09e-02 2.99e-03h  2
iter    objective    inf_pr   inf_du lg(mu)  ||d||  lg(rg) alpha_du alpha_pr  ls
  40  3.6205038e+02 3.95e+00 1.59e+08  -1.0 5.38e+10    -  2.36e-05 2.53e-04f  1
  41  4.1517834e+02 3.95e+00 1.59e+08  -1.0 1.54e+08    -  1.16e-02 1.42e-03h  5
  42  5.0188249e+02 3.95e+00 1.59e+08  -1.0 1.66e+08    -  1.57e-02 1.98e-03h  5
  43  6.3681351e+02 3.94e+00 1.58e+08  -1.0 1.83e+08    -  2.53e-02 2.51e-03h  5
  44  1.0110041e+03 3.94e+00 1.57e+08  -1.0 2.07e+08    -  3.85e-02 5.17e-03h  4
  45  1.2880602e+03 3.93e+00 1.57e+08  -1.0 2.88e+08    -  5.26e-02 2.43e-03h  5
  46  1.4485628e+03 3.93e+00 1.57e+08  -1.0 3.72e+08    -  4.55e-02 1.04e-03h  6
  47  1.4907395e+03 3.93e+00 1.57e+08  -1.0 4.43e+08    -  1.42e-02 2.24e-04h  8
  48  1.5014019e+03 3.93e+00 1.57e+08  -1.0 4.65e+08    -  7.10e-02 5.36e-05h 10
  49  5.3882150e+03 3.94e+00 1.54e+08  -1.0 4.75e+08    -  1.24e-02 1.24e-02s 17
iter    objective    inf_pr   inf_du lg(mu)  ||d||  lg(rg) alpha_du alpha_pr  ls
  50r 5.3882150e+03 3.94e+00 9.99e+02   0.6 0.00e+00    -  0.00e+00 0.00e+00R  1
  51r 5.3882137e+03 3.17e+00 9.92e+02   0.6 3.86e+03    -  2.22e-02 6.27e-03f  1
  52r 5.3882126e+03 2.33e+00 9.84e+02   0.6 4.32e+03    -  4.92e-02 6.19e-03f  1
  53  5.2692892e+03 2.32e+00 1.01e+06  -1.0 4.62e+09    -  2.38e-03 6.45e-04f  2
  54  3.5277258e+03 2.32e+00 8.96e+05  -1.0 1.11e+09    -  2.27e-03 2.20e-03f  2
  55  2.5273858e+03 2.32e+00 7.25e+05  -1.0 8.55e+08    -  2.22e-02 2.13e-03f  3
  56  2.1774100e+03 2.30e+00 1.38e+06  -1.0 1.35e+08    -  6.13e-02 3.84e-03f  3
  57  1.1832870e+03 2.58e+00 5.95e+06  -1.0 2.70e+08    -  7.68e-03 6.91e-03f  2
  58  1.0715326e+03 2.58e+00 6.06e+06  -1.0 1.14e+08    -  1.02e-02 2.27e-03f  4
  59  5.2374326e+02 2.88e+01 2.10e+07  -1.0 1.02e+08    -  1.10e-02 1.92e-02f  1
iter    objective    inf_pr   inf_du lg(mu)  ||d||  lg(rg) alpha_du alpha_pr  ls
  60  5.2264185e+02 2.86e+01 2.09e+07  -1.0 1.09e+08    -  1.28e-02 7.23e-03F  1
  61  5.6798562e+02 2.86e+01 2.08e+07  -1.0 1.86e+08    -  1.24e-02 2.36e-03h  5
  62  6.8817696e+02 2.85e+01 2.08e+07  -1.0 2.61e+08    -  1.31e-02 2.99e-03h  5
  63  7.5566913e+02 2.84e+01 2.07e+07  -1.0 4.60e+08    -  8.08e-03 7.48e-04h  6
  64  7.6137049e+02 2.84e+01 8.04e+09  -1.0 1.13e+08  -2.5 1.93e-03 4.00e-04h  5
  65  7.6830663e+02 2.84e+01 7.86e+09  -1.0 9.48e+07  -3.0 1.32e-02 2.32e-04h  5
  66  7.7255619e+02 2.84e+01 7.86e+09  -1.0 9.86e+07  -3.4 1.22e-02 1.58e-04h  5
  67  7.7182185e+02 2.84e+01 7.87e+09  -1.0 1.59e+08  -3.9 1.24e-02 1.03e-04f  5
  68  7.6449873e+02 2.84e+01 7.87e+09  -1.0 8.76e+08  -4.4 4.38e-03 3.97e-05f  5
  69  7.5359625e+02 2.84e+01 7.90e+09  -1.0 5.73e+08    -  1.55e-02 1.14e-04f  4
iter    objective    inf_pr   inf_du lg(mu)  ||d||  lg(rg) alpha_du alpha_pr  ls
  70  1.6732251e+03 2.82e+01 5.51e+10  -1.0 3.66e+08    -  1.06e-02 7.19e-03h  2
  71  5.0547665e+03 2.81e+01 3.72e+10  -1.0 2.79e+09    -  4.09e-03 2.18e-03w  1
  72  5.0631711e+03 2.81e+01 3.72e+10  -1.0 7.91e+08    -  4.16e-02 1.38e-05w  1
  73  5.5858571e+03 2.81e+01 3.66e+10  -1.0 1.43e+10    -  8.86e-04 4.62e-05w  1
  74  2.2940403e+03 2.82e+01 4.92e+10  -1.0 1.62e+10    -  4.09e-03 5.45e-04h  2
  75  3.2960030e+03 2.82e+01 4.67e+10  -1.0 4.84e+09    -  2.50e-02 3.92e-04h  3
  76  4.6147030e+03 2.82e+01 4.55e+10  -1.0 6.73e+09    -  1.52e-03 2.98e-04h  3
  77  5.7332063e+03 2.82e+01 4.53e+10  -1.0 7.20e+09    -  1.03e-01 2.02e-04h  3
  78  6.3235242e+04 2.81e+01 2.15e+11  -1.0 1.77e+10    -  7.52e-04 1.78e-03h  1
  79  8.9010865e+04 2.81e+01 1.69e+11  -1.0 8.45e+10    -  6.35e-04 9.80e-05h  1
iter    objective    inf_pr   inf_du lg(mu)  ||d||  lg(rg) alpha_du alpha_pr  ls
  80  1.0524764e+05 2.81e+01 1.58e+11  -1.0 1.58e+11    -  5.05e-03 2.91e-05h  1
  81  1.4661588e+06 2.81e+01 1.16e+13  -1.0 2.06e+11    -  2.94e-04 7.59e-04h  3
  82  3.7209000e+05 2.81e+01 1.16e+13  -1.0 1.44e+12    -  5.52e-03 7.37e-05f  2
  83  3.5697907e+05 2.81e+01 2.75e+12  -1.0 2.61e+09    -  1.29e-02 8.39e-04f  1
  84  3.7298636e+05 2.81e+01 2.60e+14  -1.0 1.41e+10    -  9.51e-04 1.64e-04h  1
  85  2.9043683e+05 2.79e+01 7.50e+15  -1.0 2.07e+09    -  8.43e-03 6.07e-03f  1
  86  2.5148201e+05 2.75e+01 7.40e+15  -1.0 5.15e+08    -  4.19e-03 1.28e-02f  2
  87  2.2099765e+05 2.71e+01 7.30e+15  -1.0 3.93e+08    -  3.53e-02 1.41e-02f  2
  88  1.9247984e+05 2.68e+01 7.20e+15  -1.0 3.87e+08    -  2.85e-04 1.43e-02f  2
  89  1.5807616e+05 2.64e+01 7.07e+15  -1.0 5.12e+08    -  1.96e-06 1.42e-02f  2
iter    objective    inf_pr   inf_du lg(mu)  ||d||  lg(rg) alpha_du alpha_pr  ls
  90  1.4937111e+05 2.63e+01 7.05e+15  -1.0 1.59e+09    -  7.99e-09 1.23e-03f  2
  91  1.4938101e+05 2.63e+01 7.05e+15  -1.0 6.32e+07   1.5 8.79e-05 8.14e-04h  4
  92  1.4938900e+05 2.62e+01 7.00e+15  -1.0 1.66e+07   1.9 6.43e-03 3.85e-03h  2
  93  1.4938926e+05 2.62e+01 7.00e+15  -1.0 1.34e+07   2.3 3.20e-02 4.97e-04h  5
  94  1.4938939e+05 2.62e+01 7.00e+15  -1.0 8.30e+06   2.7 1.27e-01 2.63e-04h  6
  95  1.4938944e+05 2.62e+01 7.00e+15  -1.0 2.08e+07   2.3 2.36e-02 1.20e-04h  7
  96  1.4939395e+05 2.60e+01 6.75e+16  -1.0 8.24e+06   2.7 1.58e-01 8.34e-03w  1
  97  1.4939391e+05 2.60e+01 6.75e+16  -1.0 1.26e+07   3.1 3.66e-03 1.87e-04w  1
  98  1.4939391e+05 2.60e+01 6.75e+16  -1.0 1.10e+07   3.5 1.01e-01 3.32e-06w  1
  99  1.4938945e+05 2.62e+01 7.00e+15  -1.0 6.24e+10   3.1 1.58e-01 3.26e-05h  8
iter    objective    inf_pr   inf_du lg(mu)  ||d||  lg(rg) alpha_du alpha_pr  ls
 100r 1.4938945e+05 2.62e+01 1.00e+03   1.4 0.00e+00   2.6 0.00e+00 2.52e-07R 16
 101r 1.4938945e+05 2.01e+01 1.01e+03   1.4 2.22e+03    -  8.80e-03 4.61e-03f  1
 102  1.4938655e+05 2.00e+01 2.24e+05  -1.0 6.88e+06    -  9.21e-02 6.14e-03f  2
 103  1.4938740e+05 1.99e+01 1.03e+06  -1.0 2.14e+07    -  2.18e-02 4.55e-03h  2
 104  1.4939485e+05 1.99e+01 2.29e+06  -1.0 5.83e+07    -  9.75e-03 2.93e-03h  2
 105  1.4939819e+05 1.98e+01 2.39e+06  -1.0 1.26e+08    -  5.84e-03 4.28e-04h  4
 106  1.4936700e+05 2.34e+01 6.24e+08  -1.0 2.83e+08    -  2.12e-04 2.62e-04H  1
 107  1.4936713e+05 2.34e+01 3.78e+08  -1.0 2.90e+06   2.1 2.10e-02 1.66e-04h  6
 108  1.4936720e+05 2.34e+01 4.08e+08  -1.0 2.90e+06   1.6 2.10e-02 8.13e-05h  7
 109  1.4936723e+05 2.34e+01 4.10e+08  -1.0 2.90e+06   1.2 2.27e-02 4.02e-05h  8
iter    objective    inf_pr   inf_du lg(mu)  ||d||  lg(rg) alpha_du alpha_pr  ls
 110r 1.4936723e+05 2.34e+01 9.99e+02   1.4 0.00e+00   0.7 0.00e+00 3.12e-07R 15
 111r 1.4936723e+05 1.81e+01 9.97e+02   1.4 1.69e+04    -  5.67e-03 1.37e-03f  1
 112  1.4922765e+05 4.73e+01 1.99e+06  -1.0 9.82e+07    -  2.51e-03 5.89e-03f  1
 113  1.4923864e+05 4.73e+01 2.19e+06  -1.0 5.16e+08    -  1.00e-03 7.58e-05h  1
 114r 1.4923864e+05 4.73e+01 9.99e+02   1.7 0.00e+00    -  0.00e+00 2.66e-07R  3
 115r 1.4923864e+05 1.68e+01 9.95e+02   1.7 2.43e+04    -  6.73e-03 1.92e-03f  1
 116  1.4932350e+05 1.68e+01 6.47e+09  -1.0 3.06e+07    -  6.46e-08 2.07e-04H  1
 117  1.4932378e+05 1.67e+01 6.51e+09  -1.0 2.63e+06   0.2 1.69e-02 5.86e-04h  1
 118r 1.4932378e+05 1.67e+01 9.99e+02   1.2 0.00e+00  -0.3 0.00e+00 3.64e-07R  5
 119r 1.4932378e+05 1.58e+01 9.95e+02   1.2 2.57e+03    -  1.43e-03 4.14e-03f  1
iter    objective    inf_pr   inf_du lg(mu)  ||d||  lg(rg) alpha_du alpha_pr  ls
 120r 1.4932378e+05 1.56e+01 9.93e+02   1.2 1.59e+03    -  2.90e-03 2.44e-03f  1
 121r 1.4932378e+05 1.55e+01 9.89e+02   1.2 1.39e+03    -  5.89e-03 3.86e-03f  1
 122r 1.4932378e+05 1.53e+01 9.84e+02   1.2 1.02e+03    -  2.92e-02 4.17e-03f  1
 123r 1.4932378e+05 1.45e+01 9.59e+02   1.2 8.43e+02    -  3.27e-02 2.63e-02f  1
 124  1.4934084e+05 1.45e+01 6.65e+01  -1.0 3.75e+07    -  2.44e-02 1.01e-04h  6
 125  1.4936175e+05 1.45e+01 1.07e+02  -1.0 1.94e+08    -  3.75e-03 2.47e-05h  8
 126r 1.4936175e+05 1.45e+01 9.99e+02   1.2 0.00e+00    -  0.00e+00 3.86e-07R 14
 127r 1.4936175e+05 1.44e+01 9.90e+02   1.2 9.32e+02    -  2.79e-02 9.26e-03f  1
 128r 1.4936175e+05 1.41e+01 1.36e+03   1.2 7.90e+02    -  5.37e-02 1.76e-02f  1
 129r 1.4936175e+05 1.39e+01 9.58e+02   1.2 6.97e+02    -  3.96e-03 1.45e-02f  1
iter    objective    inf_pr   inf_du lg(mu)  ||d||  lg(rg) alpha_du alpha_pr  ls
 130r 1.4936175e+05 1.37e+01 1.88e+03   1.2 4.63e+02    -  8.80e-02 1.82e-02f  1
 131r 1.4936175e+05 1.33e+01 2.40e+03   1.2 5.58e+00   2.0 9.15e-02 2.02e-01f  1
 132r 1.4936175e+05 1.30e+01 2.09e+03   1.2 4.38e-01   3.3 4.06e-01 4.21e-01f  1
 133  1.4578113e+05 1.45e+02 7.04e+05  -1.0 4.99e+07    -  1.54e-02 1.65e-02f  1
 134r 1.4578113e+05 1.45e+02 9.99e+02   2.2 0.00e+00    -  0.00e+00 3.83e-07R 10
 135r 1.4578113e+05 9.28e+00 3.95e+03   2.2 2.86e+04    -  1.67e-02 5.02e-03f  1
 136r 1.4578113e+05 9.28e+00 9.99e+02   1.0 0.00e+00    -  0.00e+00 3.38e-07R 10
 137r 1.4578113e+05 4.24e+00 9.93e+02   1.0 9.25e+03    -  2.39e-02 9.93e-04f  1
 138  1.4572984e+05 4.24e+00 8.59e+01  -1.0 6.50e+07    -  5.67e-03 1.83e-04f  1
 139  1.4494893e+05 1.65e+01 6.44e+06  -1.0 2.16e+08    -  3.52e-08 1.96e-05H  1
iter    objective    inf_pr   inf_du lg(mu)  ||d||  lg(rg) alpha_du alpha_pr  ls
 140  1.4494898e+05 1.65e+01 6.53e+06  -1.0 5.08e+06  -0.8 1.62e-03 1.45e-04h  2
 141  1.4494900e+05 1.65e+01 6.54e+06  -1.0 5.14e+06  -1.2 1.02e-02 7.21e-05h  2
 142  1.4494902e+05 1.65e+01 6.56e+06  -1.0 5.15e+06  -1.7 1.38e-02 7.18e-05h  1
 143  1.4544074e+05 1.65e+01 6.56e+06  -1.0 3.31e+09    -  2.70e-05 3.44e-05h  5
 144r 1.4544074e+05 1.65e+01 9.99e+02   1.2 0.00e+00  -2.2 0.00e+00 3.99e-07R  3
 145r 1.4544074e+05 1.07e+01 1.36e+03   1.2 4.51e+03    -  4.61e-03 3.22e-03f  1
 146  1.4523509e+05 1.07e+01 1.19e+03  -1.0 7.97e+07    -  8.75e-03 5.94e-04f  1
 147  1.4523290e+05 5.53e+01 1.19e+03  -1.0 7.60e+07    -  3.17e-05 6.65e-06f  3
 148  1.4522321e+05 5.53e+01 1.39e+03  -1.0 6.95e+08    -  1.97e-03 3.22e-06f  1
Error in an AMPL evaluation. Run with "halt_on_ampl_error yes" to see details.
Warning: SOC step rejected due to evaluation error
 149r 1.4522321e+05 5.53e+01 1.00e+03   1.7 0.00e+00    -  0.00e+00 2.15e-08R  2
iter    objective    inf_pr   inf_du lg(mu)  ||d||  lg(rg) alpha_du alpha_pr  ls
 150r 1.4522321e+05 2.43e+02 3.07e+03   1.7 2.66e+04    -  1.77e-02 2.06e-03f  1
 151r 1.4522321e+05 6.98e+00 4.12e+03   1.7 2.85e+02    -  1.65e-01 1.22e-02f  1
 152  1.4521555e+05 4.09e+00 3.33e+03  -1.0 3.79e+06    -  1.77e-03 1.89e-03f  1
 153r 1.4521555e+05 4.09e+00 9.99e+02   0.6 0.00e+00    -  0.00e+00 2.35e-08R  2
 154r 1.4521555e+05 5.32e+00 9.98e+02   0.6 2.81e+03    -  2.51e-04 1.44e-03f  1
 155r 1.4521555e+05 5.34e+00 9.94e+02   0.6 2.09e+03    -  3.97e-02 8.69e-04f  1
 156r 1.4521555e+05 1.22e+01 9.87e+02   0.6 8.75e+02    -  1.20e-03 1.06e-02f  1
 157r 1.4521555e+05 1.22e+01 9.76e+02   0.6 6.30e+02    -  2.56e-02 6.75e-03f  1
 158r 1.4521555e+05 1.18e+01 9.42e+02   0.6 2.31e+01   0.0 9.78e-02 3.40e-02f  1
 159r 1.4521555e+05 1.34e+01 8.76e+02   0.6 5.01e+00   1.3 1.53e-01 1.13e-01f  1
iter    objective    inf_pr   inf_du lg(mu)  ||d||  lg(rg) alpha_du alpha_pr  ls
 160r 1.4521555e+05 1.08e+01 6.93e+02   0.6 1.72e+01   0.9 2.35e-01 1.75e-01f  1
 161r 1.4521555e+05 9.92e+00 6.57e+02   0.6 4.12e+01   0.4 4.14e-02 5.68e-02f  1
 162r 1.4521555e+05 4.90e+00 9.54e+02   0.6 2.72e+00   2.6 2.12e-01 1.42e-01f  1
 163r 1.4521555e+05 4.34e+00 6.62e+02   0.6 6.81e+00   2.1 4.26e-02 9.44e-02f  1
 164r 1.4521555e+05 4.23e+00 4.50e+03   0.6 3.72e+00   1.7 4.15e-01 2.48e-02f  1
 165r 1.4521555e+05 3.47e+00 1.04e+04   0.6 4.89e+00   1.2 9.90e-01 1.37e-01f  1
 166  1.4521565e+05 3.47e+00 4.09e+00  -1.0 7.14e+06    -  9.25e-04 5.27e-05h  2
 167  1.4517022e+05 1.23e+01 1.95e+07  -1.0 7.35e+06    -  2.54e-03 1.51e-01f  1
 168  1.4519687e+05 1.23e+01 1.95e+07  -1.0 6.66e+07    -  7.64e-03 9.19e-05h  5
 169  1.4520664e+05 1.23e+01 1.95e+07  -1.0 3.95e+07    -  8.72e-03 5.65e-05h  6
iter    objective    inf_pr   inf_du lg(mu)  ||d||  lg(rg) alpha_du alpha_pr  ls
 170  1.4520850e+05 1.23e+01 1.95e+07  -1.0 3.64e+07    -  7.89e-03 1.72e-05h  8
 171  1.4541238e+05 1.22e+01 1.95e+07  -1.0 3.73e+07    -  2.33e-03 2.33e-03s 14
 172r 1.4541238e+05 1.22e+01 9.99e+02   1.1 0.00e+00  -2.7 0.00e+00 0.00e+00R  1
 173r 1.4541238e+05 5.48e+00 9.97e+02   1.1 1.20e+04    -  2.28e-03 1.01e-03f  1
 174r 1.4541238e+05 1.43e+01 3.69e+03   1.1 1.10e+01   2.0 1.68e-01 7.34e-02f  1
 175r 1.4541238e+05 1.39e+01 3.55e+03   1.1 3.06e+01   1.5 1.81e-02 4.29e-02f  1
 176r 1.4541238e+05 1.38e+01 3.47e+03   1.1 7.71e+01   1.0 3.78e-02 2.92e-02f  1
 177r 1.4541238e+05 1.33e+01 3.41e+03   1.1 2.62e+02   1.5 8.71e-04 1.21e-03f  1
 178r 1.4541238e+05 1.33e+01 3.93e+03   1.1 2.29e+01   1.9 1.10e-02 1.38e-04h  1
 179r 1.4541238e+05 3.83e+00 3.66e+03   1.1 1.14e+01   3.2 6.18e-04 3.55e-02h  1
iter    objective    inf_pr   inf_du lg(mu)  ||d||  lg(rg) alpha_du alpha_pr  ls
 180r 1.4541238e+05 3.76e+00 3.22e+03   1.1 1.64e+00   2.7 1.58e-01 1.33e-01f  1
 181r 1.4541238e+05 3.73e+00 1.58e+03   1.1 1.32e-01   4.1 9.90e-01 1.00e+00f  1
 182r 1.4541238e+05 3.66e+00 1.02e+03   1.1 2.24e-01   3.6 9.90e-01 8.13e-01f  1
 183r 1.4541238e+05 1.60e+01 9.12e+04   1.1 2.38e-01   3.1 8.02e-01 2.78e-01f  1
 184r 1.4541238e+05 3.60e+00 6.97e+03   1.1 1.39e-01   5.4 9.91e-01 1.55e-01h  1
 185r 1.4541238e+05 3.60e+00 5.35e+02   1.1 7.06e-03   4.9 1.00e+00 1.00e+00f  1
 186r 1.4541238e+05 1.59e+01 8.91e+04   0.4 1.77e-02   4.4 1.00e+00 9.01e-01f  1
 187r 1.4541238e+05 1.49e+01 8.08e+04   0.4 1.01e-01   5.7 2.77e-01 5.89e-02f  1
 188r 1.4541238e+05 3.58e+00 2.37e+04   0.4 1.27e-01   5.3 1.00e+00 1.00e+00f  1
 189r 1.4541238e+05 3.58e+00 8.39e+03   0.4 2.88e-02   4.8 1.00e+00 6.69e-01f  1
iter    objective    inf_pr   inf_du lg(mu)  ||d||  lg(rg) alpha_du alpha_pr  ls
 190r 1.4541238e+05 3.58e+00 5.24e+03   0.4 2.30e-02   4.3 1.00e+00 3.99e-01f  1
 191r 1.4541238e+05 3.53e+00 3.19e+02   0.4 4.79e-02   3.8 1.00e+00 1.00e+00f  1
 192r 1.4541238e+05 3.49e+00 2.70e+03   0.4 1.66e-01   3.3 6.68e-01 3.13e-01f  1
 193r 1.4541238e+05 1.79e+01 1.21e+05   0.4 5.65e-02   3.8 1.00e+00 8.41e-01f  1
 194r 1.4541238e+05 1.73e+01 1.15e+05   0.4 2.55e-01   5.1 4.10e-02 3.41e-02h  1
 195r 1.4541238e+05 3.44e+00 8.31e+03   0.4 1.31e-01   5.5 3.07e-01 7.55e-02h  1
 196r 1.4541238e+05 3.44e+00 8.17e+03   0.4 5.36e-02   5.0 1.93e-03 1.25e-03F  1
 197r 1.4541238e+05 3.44e+00 3.92e+03   0.4 3.06e-02   4.6 1.00e+00 1.48e-01f  1
 198r 1.4541238e+05 1.44e+01 5.36e+04   0.4 2.49e-02   4.1 1.00e+00 1.00e+00f  1
 199r 1.4541238e+05 1.43e+01 4.94e+04   0.4 4.26e-01   6.3 7.96e-03 4.07e-02h  1
iter    objective    inf_pr   inf_du lg(mu)  ||d||  lg(rg) alpha_du alpha_pr  ls
 200r 1.4541238e+05 1.42e+01 4.01e+04   0.4 5.65e-01   6.8 5.25e-04 4.98e-03H  1
 201r 1.4541238e+05 1.42e+01 4.00e+04   0.4 7.46e-01   6.3 2.72e-03 7.94e-05H  1
 202r 1.4541238e+05 1.42e+01 3.75e+04   0.4 3.91e+00   5.8 5.00e-03 2.32e-03f  3
 203r 1.4541238e+05 1.42e+01 3.65e+04   0.4 9.08e-01   6.2 6.18e-04 6.73e-04H  1
 204r 1.4541238e+05 1.41e+01 4.26e+04   0.4 3.34e+00   5.7 4.22e-03 1.02e-02H  1
 205r 1.4541238e+05 1.41e+01 4.24e+04   0.4 1.39e+00   6.2 6.65e-03 3.42e-04h  3
 206r 1.4541238e+05 1.38e+01 4.23e+04   0.4 1.52e+00   5.7 1.80e-03 2.70e-02h  1
 207r 1.4541238e+05 1.32e+01 6.88e+04   0.4 1.51e+00   5.2 4.03e-02 3.53e-02h  1
 208r 1.4541238e+05 1.32e+01 6.88e+04   0.4 1.95e+01   4.7 7.04e-04 4.85e-05h  1
 209r 1.4541238e+05 1.30e+01 8.51e+04   0.4 1.91e+00   5.2 5.67e-02 1.13e-02h  1
iter    objective    inf_pr   inf_du lg(mu)  ||d||  lg(rg) alpha_du alpha_pr  ls
 210r 1.4541238e+05 3.42e+00 2.52e+04   0.4 6.98e-01   5.6 1.78e-03 7.02e-02f  1
 211r 1.4541238e+05 3.42e+00 2.47e+03   0.4 1.89e-02   5.1 1.00e+00 1.00e+00f  1
 212r 1.4541238e+05 3.41e+00 4.02e+02   0.4 9.16e-03   4.6 1.00e+00 1.00e+00f  1
 213r 1.4541238e+05 3.39e+00 3.21e+02   0.4 2.14e-02   4.2 1.00e+00 8.66e-01f  1
 214r 1.4541238e+05 1.42e+01 8.71e+03   0.4 7.09e-02   3.7 1.00e+00 1.00e+00f  1
 215r 1.4541238e+05 1.41e+01 8.67e+03   0.4 3.34e+00   5.0 5.62e-03 5.81e-03h  1
 216r 1.4541238e+05 1.40e+01 6.01e+03   0.4 1.41e+00   5.4 6.35e-03 7.69e-03h  1
 217r 1.4541238e+05 1.40e+01 5.57e+03   0.4 1.34e+00   5.0 1.81e-02 3.49e-03h  1
 218r 1.4541238e+05 1.30e+01 1.02e+04   0.4 1.40e+00   4.5 5.46e-02 7.68e-02h  1
 219r 1.4541238e+05 1.30e+01 1.02e+04   0.4 7.51e+00   4.0 9.50e-04 5.25e-04f  2
iter    objective    inf_pr   inf_du lg(mu)  ||d||  lg(rg) alpha_du alpha_pr  ls
 220r 1.4541238e+05 1.29e+01 1.06e+04   0.4 1.75e+00   4.4 5.54e-02 5.44e-03h  1
 221r 1.4541238e+05 1.27e+01 1.63e+04   0.4 3.56e+01   4.0 5.40e-04 1.20e-03f  1
 222r 1.4541238e+05 3.33e+00 5.50e+03   0.4 3.04e-01   5.3 6.30e-02 8.82e-02f  1
 223r 1.4541238e+05 3.32e+00 1.32e+03   0.4 2.03e-02   4.8 1.00e+00 1.00e+00f  1
 224r 1.4541238e+05 1.39e+01 1.11e+05   0.4 1.88e-02   4.3 1.00e+00 1.00e+00f  1
 225r 1.4541238e+05 3.31e+00 2.04e+04   0.4 9.76e-02   5.7 9.57e-01 7.16e-02h  1
 226r 1.4541238e+05 3.31e+00 4.12e+02   0.4 2.69e-03   5.2 1.00e+00 1.00e+00f  1
 227r 1.4541238e+05 1.49e+01 1.16e+05   0.4 7.63e-03   4.7 1.00e+00 1.00e+00f  1
 228r 1.4541238e+05 3.30e+00 1.52e+03   0.4 6.14e-01   5.1 2.28e-02 1.60e-02h  1
 229r 1.4541238e+05 3.30e+00 1.00e+03   0.4 9.38e-03   4.7 1.00e+00 4.12e-01f  1
iter    objective    inf_pr   inf_du lg(mu)  ||d||  lg(rg) alpha_du alpha_pr  ls
 230r 1.4541238e+05 1.84e+01 1.19e+05   0.4 2.13e-02   4.2 1.00e+00 1.00e+00f  1
 231r 1.4541238e+05 1.83e+01 1.18e+05   0.4 6.25e-01   4.6 7.91e-03 2.81e-03h  1
 232r 1.4541238e+05 1.75e+01 1.09e+05   0.4 1.19e-01   5.9 5.67e-02 4.17e-02h  1
 233r 1.4541238e+05 3.28e+00 1.51e+04   0.4 1.18e-01   5.5 5.92e-01 3.75e-01h  1
 234r 1.4541238e+05 3.27e+00 9.88e+02   0.4 1.03e-02   5.0 1.00e+00 1.00e+00f  1
 235r 1.4541238e+05 3.26e+00 3.33e+02   0.4 9.69e-03   4.5 1.00e+00 1.00e+00f  1
 236r 1.4541238e+05 1.74e+01 1.21e+05   0.4 2.90e-02   4.0 1.00e+00 1.00e+00f  1
 237r 1.4541238e+05 3.23e+00 2.30e+03   0.4 1.81e-01   5.4 1.29e-01 5.68e-02h  1
 238r 1.4541238e+05 3.23e+00 3.61e+02   0.4 4.80e-03   4.9 1.00e+00 1.00e+00f  1
 239r 1.4541238e+05 1.83e+01 1.18e+05   0.4 1.30e-02   4.4 1.00e+00 1.00e+00f  1
iter    objective    inf_pr   inf_du lg(mu)  ||d||  lg(rg) alpha_du alpha_pr  ls
 240r 1.4541238e+05 1.82e+01 1.17e+05   0.4 9.32e-01   4.8 6.19e-03 4.77e-03h  1
 241r 1.4541238e+05 3.22e+00 2.82e+03   0.4 2.31e-01   5.3 8.31e-02 6.00e-02h  1
 242r 1.4541238e+05 3.21e+00 4.35e+02   0.4 7.28e-03   4.8 1.00e+00 1.00e+00f  1
 243r 1.4541238e+05 1.89e+01 1.20e+05   0.4 1.64e-02   4.3 1.00e+00 1.00e+00f  1
 244r 1.4541238e+05 1.88e+01 1.19e+05   0.4 6.13e-01   4.7 6.61e-03 6.08e-03h  1
 245r 1.4541238e+05 3.20e+00 2.65e+03   0.4 3.35e-01   5.2 5.72e-02 4.76e-02h  1
 246r 1.4541238e+05 1.78e+01 9.17e+04   0.4 9.98e-03   4.7 1.00e+00 1.00e+00f  1
 247r 1.4541238e+05 3.19e+00 2.70e+03   0.4 1.12e-01   6.0 5.70e-02 2.62e-02h  1
 248r 1.4541238e+05 1.73e+01 8.52e+04   0.4 3.47e-03   5.5 1.00e+00 1.00e+00f  1
 249r 1.4541238e+05 3.19e+00 1.42e+04   0.4 1.20e-01   6.0 2.19e-01 2.58e-02h  1
iter    objective    inf_pr   inf_du lg(mu)  ||d||  lg(rg) alpha_du alpha_pr  ls
 250r 1.4541238e+05 3.19e+00 8.61e+02   0.4 3.29e-03   5.5 1.00e+00 1.00e+00f  1
 251r 1.4541238e+05 1.75e+01 1.15e+05   0.4 3.77e-03   5.0 1.00e+00 1.00e+00f  1
 252r 1.4541238e+05 3.19e+00 7.20e+03   0.4 1.63e-01   5.4 3.05e-01 6.03e-02h  1
 253r 1.4541238e+05 3.18e+00 3.49e+02   0.4 3.96e-03   4.9 1.00e+00 1.00e+00f  1
 254r 1.4541238e+05 1.82e+01 1.18e+05   0.4 1.12e-02   4.5 1.00e+00 1.00e+00f  1
 255r 1.4541238e+05 1.81e+01 1.16e+05   0.4 6.90e-01   4.9 8.90e-03 6.89e-03h  1
 256r 1.4541238e+05 3.17e+00 3.48e+03   0.4 5.91e-01   5.3 1.11e-02 2.14e-02h  1
 257r 1.4541238e+05 3.17e+00 5.01e+02   0.4 7.17e-03   4.8 1.00e+00 1.00e+00f  1
 258r 1.4541238e+05 1.79e+01 1.04e+05   0.4 1.40e-02   4.4 1.00e+00 6.42e-01f  1
 259r 1.4541238e+05 3.16e+00 1.57e+03   0.4 1.70e+00   3.9 2.22e-03 5.01e-03h  1
iter    objective    inf_pr   inf_du lg(mu)  ||d||  lg(rg) alpha_du alpha_pr  ls
 260r 1.4541238e+05 1.73e+01 3.62e+04   0.4 3.07e-01   3.4 6.23e-01 7.34e-01f  1
 261r 1.4541238e+05 1.73e+01 3.66e+04   0.4 7.23e+00   5.6 8.62e-04 2.36e-04h  1
 262r 1.4541238e+05 1.73e+01 3.66e+04   0.4 3.49e-01   6.1 1.05e-02 5.52e-05h  5
 263r 1.4541238e+05 1.71e+01 2.99e+04   0.4 2.38e-01   6.5 7.94e-03 1.00e-02h  1
 264r 1.4541238e+05 1.68e+01 2.55e+04   0.4 2.97e-01   6.0 2.73e-02 2.18e-02h  1
 265r 1.4541238e+05 3.07e+00 5.66e+04   0.4 1.80e+00   5.5 7.36e-03 7.28e-02h  1
 266r 1.4541238e+05 3.07e+00 5.37e+03   0.4 2.46e-02   5.1 7.35e-01 1.00e+00f  1
 267r 1.4541238e+05 3.07e+00 2.29e+03   0.4 1.41e-02   4.6 1.00e+00 2.05e-01f  1
 268r 1.4541238e+05 5.78e+01 8.22e+04   0.4 4.19e-02   4.1 1.00e+00 1.00e+00f  1
 269r 1.4541238e+05 3.04e+00 1.12e+03   0.4 1.25e+01   3.6 7.44e-03 8.56e-03f  1
iter    objective    inf_pr   inf_du lg(mu)  ||d||  lg(rg) alpha_du alpha_pr  ls
 270r 1.4541238e+05 1.70e+01 1.41e+05   0.4 9.69e-01   3.2 5.20e-02 4.11e-02f  1
 271r 1.4541238e+05 1.65e+01 1.33e+05   0.4 2.34e-01   5.4 5.01e-02 3.65e-02h  1
 272r 1.4541238e+05 1.54e+01 9.78e+04   0.4 2.43e-01   5.8 2.58e-02 1.55e-01h  1
 273r 1.4541238e+05 1.49e+01 7.30e+04   0.4 9.11e-01   6.2 3.90e-02 4.61e-02f  1
 274r 1.4541238e+05 1.49e+01 7.00e+04   0.4 4.53e+00   5.8 8.61e-03 1.17e-03H  1
 275r 1.4541238e+05 1.49e+01 6.97e+04   0.4 1.02e+00   6.2 7.78e-04 1.65e-04h  1
 276r 1.4541238e+05 1.46e+01 8.18e+04   0.4 1.14e+00   6.6 1.23e-05 2.31e-02f  1
 277r 1.4541238e+05 1.46e+01 8.19e+04   0.4 1.34e+00   6.1 6.14e-03 2.70e-04H  1
 278r 1.4541238e+05 1.38e+01 8.76e+04   0.4 1.38e+00   5.7 1.05e-03 6.28e-02h  1
 279r 1.4541238e+05 1.38e+01 8.79e+04   0.4 5.94e+00   5.2 1.13e-03 1.03e-03H  1
iter    objective    inf_pr   inf_du lg(mu)  ||d||  lg(rg) alpha_du alpha_pr  ls
 280r 1.4541238e+05 1.38e+01 8.82e+04   0.4 2.69e+00   5.6 2.03e-02 1.13e-03h  1
 281r 1.4541238e+05 1.37e+01 8.91e+04   0.4 3.35e+01   5.1 3.01e-04 7.26e-04h  1
 282r 1.4541238e+05 1.37e+01 8.75e+04   0.4 4.13e+00   5.6 2.67e-02 1.00e-05h  4
 283r 1.4541238e+05 1.37e+01 8.78e+04   0.4 5.39e+02   5.1 7.65e-05 1.18e-05h  2
 284r 1.4541238e+05 1.36e+01 1.22e+05   0.4 3.62e+00   5.5 1.17e-02 6.06e-03h  1
 285r 1.4541238e+05 3.04e+00 1.26e+05   0.4 2.63e+00   5.9 1.49e-04 1.42e-02h  1
 286r 1.4541238e+05 1.38e+01 1.13e+06   0.4 1.15e-01   5.5 3.78e-01 1.00e+00f  1
 287r 1.4541238e+05 1.38e+01 1.13e+06   0.4 2.23e+01   5.0 1.05e-04 9.22e-05H  1
 288r 1.4541238e+05 1.25e+01 1.66e+06   0.4 3.18e+00   5.4 5.73e-03 2.19e-02h  1
 289r 1.4541238e+05 1.19e+01 1.63e+04   0.4 1.03e-01   4.9 8.02e-01 9.54e-01h  1
iter    objective    inf_pr   inf_du lg(mu)  ||d||  lg(rg) alpha_du alpha_pr  ls
 290r 1.4541238e+05 3.03e+00 3.95e+03   0.4 1.03e+00   4.5 2.35e-02 1.44e-01f  1
 291r 1.4541238e+05 3.02e+00 3.70e+03   0.4 9.32e-02   4.0 1.00e+00 2.14e-01f  1
 292r 1.4541238e+05 1.44e+01 4.64e+03   0.4 1.43e-01   3.5 1.00e+00 8.98e-01f  1
 293r 1.4541238e+05 1.43e+01 4.26e+03   0.4 1.60e+00   4.8 6.27e-03 5.82e-03h  1
 294r 1.4541238e+05 1.41e+01 3.92e+03   0.4 2.50e+00   4.3 4.58e-03 3.15e-02h  1
 295r 1.4541238e+05 1.36e+01 3.54e+03   0.4 1.44e+00   3.9 1.54e-03 3.75e-02h  1
 296r 1.4541238e+05 2.92e+00 3.52e+03   0.4 1.74e+00   3.4 1.33e-01 1.22e-01h  1
 297r 1.4541238e+05 2.83e+00 2.81e+03   0.4 4.78e-01   2.9 2.94e-01 2.28e-01f  1
 298  1.4542108e+05 2.83e+00 1.61e+03  -1.0 1.63e+07    -  2.25e-02 1.12e-03h  3
 299  1.4540951e+05 2.82e+00 1.21e+04  -1.0 1.82e+07    -  2.28e-02 4.24e-03f  2
iter    objective    inf_pr   inf_du lg(mu)  ||d||  lg(rg) alpha_du alpha_pr  ls
 300  1.4408236e+05 1.38e+01 4.33e+05  -1.0 2.18e+07    -  3.39e-02 3.27e-02f  1
 301  1.4399732e+05 1.31e+01 2.74e+11  -1.0 4.18e+07    -  3.64e-02 1.86e-02f  1
 302  1.4398406e+05 9.23e+00 1.18e+15  -1.0 5.56e+07    -  2.70e-03 3.69e-04f  1
WARNING: Problem in step computation; switching to emergency mode.
 303r 1.4398406e+05 9.23e+00 9.99e+02   1.0 0.00e+00  19.4 0.00e+00 0.00e+00R  1
 304r 1.4398406e+05 9.23e+00 1.40e+03   1.0 9.23e+03    -  2.12e-02 9.90e-04f  1
 305r 1.4398406e+05 5.69e+00 5.27e+09   1.0 1.98e+03    -  3.59e-03 9.03e-03f  1
 306  1.4398405e+05 1.92e+00 2.77e+03  -1.0 1.74e+09    -  1.30e-07 2.30e-09h  1
 307r 1.4398405e+05 1.92e+00 1.00e+03   0.3 0.00e+00    -  0.00e+00 1.15e-11R  2
 308r 1.4398405e+05 9.26e+00 4.22e+10   0.3 5.22e+03    -  1.57e-02 3.07e-03f  1
 309r 1.4398405e+05 5.51e+00 6.28e+12   0.3 2.80e+00   7.5 5.31e-04 4.30e-04H  1
iter    objective    inf_pr   inf_du lg(mu)  ||d||  lg(rg) alpha_du alpha_pr  ls
 310r 1.4398405e+05 5.51e+00 3.38e+14   0.3 5.25e-01   9.3 2.37e-02 3.05e-03f  5
 311r 1.4398405e+05 1.54e+00 9.99e+08   0.3 1.26e-02  11.0 9.80e-04 6.28e-01F  1
 312r 1.4398405e+05 1.54e+00 9.99e+02   0.2 0.00e+00    -  0.00e+00 2.05e-11R  2
 313r 1.4398405e+05 9.26e+00 5.79e+10   0.2 3.02e+03    -  1.42e-02 7.70e-03f  1
WARNING: Problem in step computation; switching to emergency mode.
 314r 1.4398405e+05 9.26e+00 5.79e+10   0.2 3.02e+03  19.8 0.00e+00 0.00e+00R  1
WARNING: Problem in step computation; switching to emergency mode.
Restoration phase is called at point that is almost feasible,
  with constraint violation 0.000000e+00. Abort.
Restoration phase in the restoration phase failed.

Number of Iterations....: 314

                                   (scaled)                 (unscaled)
Objective...............:   1.4398405171352229e+05    1.4398405171352229e+05
Dual infeasibility......:   5.7924928201188004e+10    5.7924928201188004e+10
Constraint violation....:   9.2603500412054682e+00    9.2603500412054682e+00
Complementarity.........:   9.8583878393173838e+08    9.8583878393173838e+08
Overall NLP error.......:   5.7924928201188004e+10    5.7924928201188004e+10


Number of objective function evaluations             = 863
Number of objective gradient evaluations             = 158
Number of equality constraint evaluations            = 864
Number of inequality constraint evaluations          = 0
Number of equality constraint Jacobian evaluations   = 331
Number of inequality constraint Jacobian evaluations = 0
Number of Lagrangian Hessian evaluations             = 315
Total CPU secs in IPOPT (w/o function evaluations)   =      0.787
Total CPU secs in NLP function evaluations           =     10.381

EXIT: Restoration Failed!
